2000	50	0,6	0,15	4,52144130	39
2000	50	0,6	0,15	4,95313740	39
2000	50	0,6	0,15	4,42840690	39
2000	50	0,6	0,15	4,62671310	39
2000	50	0,6	0,15	5,23000760	39
2000	50	0,6	0,15	5,63994160	39
2000	50	0,6	0,15	4,45015700	39
2000	50	0,6	0,15	4,51398860	39
2000	50	0,6	0,15	4,66152950	39
2000	50	0,6	0,15	4,50900000	39
